Route 1: 20 24 25 27 29 30 28 26 23 22 21 43
Route 2: 67 65 63 62 74 72 61 64 68 66 69
Route 3: 75 1 2 8 10 11 9 6 4 7 3 5
Route 4: 42 41 40 44 46 45 48 51 50 52 49 47
Route 5: 90 87 86 83 82 84 85 88 89 91 96 98
Route 6: 31 33 32 35 37 38 39 36 34
Route 7: 13 17 18 19 15 16 14 12 94
Route 8: 54 55 53 56 58 60 59 57
Route 9: 81 78 76 71 70 73 77 79 80 95
Route 10: 92 93 97 100 99
Vehicles: 10
Distance: 990.40
